
******************************************************************************
This program contains Ipopt, a library for large-scale nonlinear optimization.
 Ipopt is released as open source code under the Eclipse Public License (EPL).
         For more information visit https://github.com/coin-or/Ipopt
******************************************************************************

This is Ipopt version 3.14.19, running with linear solver MUMPS 5.8.1.

Number of nonzeros in equality constraint Jacobian...:     4389
Number of nonzeros in inequality constraint Jacobian.:        0
Number of nonzeros in Lagrangian Hessian.............:     1050

Total number of variables............................:     1287
                     variables with only lower bounds:        0
                variables with lower and upper bounds:      457
                     variables with only upper bounds:        0
Total number of equality constraints.................:     1274
Total number of inequality constraints...............:        0
        inequality constraints with only lower bounds:        0
   inequality constraints with lower and upper bounds:        0
        inequality constraints with only upper bounds:        0

iter    objective    inf_pr   inf_du lg(mu)  ||d||  lg(rg) alpha_du alpha_pr  ls
   0  9.8481721e+00 9.90e+01 2.54e-04  -1.0 0.00e+00    -  0.00e+00 0.00e+00   0
   1  9.8681067e+00 7.25e+00 2.13e+01  -1.0 9.98e+01    -  4.29e-02 9.92e-01h  1
   2  9.8589461e+00 5.66e+00 1.01e+00  -1.0 2.30e+01    -  7.90e-01 9.96e-01h  1
   3  9.8670553e+00 2.82e+00 8.78e-01  -1.0 5.40e-01  -4.0 9.90e-01 5.10e-01h  1
   4  9.8666884e+00 7.01e-02 5.49e-03  -1.0 1.36e+01    -  1.00e+00 1.00e+00h  1
   5  9.8516672e+00 5.07e+01 2.17e-03  -2.5 7.70e+01    -  1.00e+00 1.00e+00h  1
   6  9.8623071e+00 1.97e-02 1.28e-03  -2.5 5.03e-01  -4.5 1.00e+00 1.00e+00h  1
   7  9.8612626e+00 1.07e+00 8.21e-04  -3.8 4.64e+01    -  1.00e+00 1.00e+00h  1
   8  9.8608497e+00 1.70e+00 8.45e-04  -3.8 1.19e+02    -  1.00e+00 1.00e+00h  1
   9  9.8607042e+00 1.34e+00 1.18e-03  -3.8 2.53e+02    -  1.00e+00 1.00e+00h  1
iter    objective    inf_pr   inf_du lg(mu)  ||d||  lg(rg) alpha_du alpha_pr  ls
  10  9.8605834e+00 2.31e+00 6.75e-04  -3.8 5.20e+02    -  1.00e+00 1.00e+00h  1
  11  9.8605684e+00 6.16e-01 1.96e-03  -3.8 1.12e+03    -  1.00e+00 1.00e+00h  1
  12  9.8604928e+00 9.14e+00 5.91e-04  -3.8 3.28e+03    -  1.00e+00 1.00e+00h  1
  13  9.8605384e+00 1.02e-07 1.91e-08  -3.8 1.68e-03  -5.0 1.00e+00 1.00e+00h  1
  14  9.8605044e+00 1.24e+00 8.04e-04  -5.7 2.71e+03    -  8.25e-01 1.00e+00h  1
  15  9.8600636e+00 1.28e+00 7.95e-04  -5.7 6.78e+03    -  2.98e-01 8.32e-01h  1
  16  9.8598777e+00 1.42e+00 8.62e-04  -5.7 1.17e+04    -  9.36e-01 9.10e-01h  1
  17  9.8598697e+00 1.14e+00 6.98e-04  -5.7 2.19e+04    -  1.00e+00 5.95e-01h  1
  18  9.8598697e+00 1.16e+00 7.09e-04  -5.7 2.98e+04    -  8.89e-01 7.62e-01h  1
  19  9.8598663e+00 1.54e+00 9.41e-04  -5.7 4.83e+04    -  1.00e+00 1.00e+00h  1
iter    objective    inf_pr   inf_du lg(mu)  ||d||  lg(rg) alpha_du alpha_pr  ls
  20  9.8598653e+00 1.64e+00 9.97e-04  -5.7 1.03e+05    -  1.00e+00 1.00e+00h  1
  21  9.8598650e+00 1.65e+00 1.01e-03  -5.7 2.08e+05    -  1.00e+00 1.00e+00h  1
  22  9.8598649e+00 6.23e-01 1.90e-03  -5.7 4.17e+05    -  1.00e+00 1.00e+00H  1
  23  9.8598647e+00 9.84e+00 5.55e-04  -5.7 1.19e+06    -  1.00e+00 1.00e+00h  1
  24  9.8598648e+00 5.91e-13 1.71e-11  -5.7 4.61e-06  -5.4 1.00e+00 1.00e+00h  1
  25  9.8598499e+00 2.40e-01 1.50e-04  -8.6 1.07e+06    -  8.76e-01 4.39e-01f  1
  26  9.8598491e+00 4.63e-01 2.92e-04  -8.6 1.43e+06    -  1.00e+00 5.14e-01h  1
  27  9.8598491e+00 1.37e+00 8.49e-04  -8.6 2.01e+06    -  1.00e+00 1.00e+00h  1
  28  9.8598491e+00 4.73e-01 1.78e-03  -8.6 4.69e+06    -  1.00e+00 1.00e+00H  1
  29  9.8598491e+00 3.03e-01 7.12e-04  -8.6 1.26e+07    -  1.00e+00 1.00e+00H  1
iter    objective    inf_pr   inf_du lg(mu)  ||d||  lg(rg) alpha_du alpha_pr  ls
  30  9.8598491e+00 2.70e-01 1.27e-03  -8.6 2.03e+07    -  1.00e+00 1.00e+00H  1
  31  9.8598491e+00 1.73e-01 8.91e-04  -8.6 4.61e+07    -  1.00e+00 1.00e+00H  1
  32  9.8598491e+00 8.20e-02 1.09e-03  -8.6 8.59e+07    -  1.00e+00 1.00e+00H  1
  33  9.8598491e+00 3.38e-02 1.05e-03  -8.6 1.79e+08    -  1.00e+00 1.00e+00H  1
  34  9.8598491e+00 2.63e-02 1.03e-03  -8.6 3.54e+08    -  1.00e+00 1.00e+00H  1
  35  9.8598491e+00 2.43e-02 1.04e-03  -8.6 7.05e+08    -  1.00e+00 1.00e+00H  1
  36  9.8598491e+00 6.19e-03 1.03e-03  -8.6 1.41e+09    -  1.00e+00 1.00e+00H  1
  37  9.8598491e+00 6.19e-03 1.03e-03  -8.6 2.82e+09    -  1.00e+00 1.95e-03h 10
  38  9.8598491e+00 6.18e-03 1.04e-03  -8.6 2.82e+09    -  1.00e+00 1.00e+00H  1
  39  9.8598491e+00 6.18e-03 1.04e-03  -8.6 5.66e+09    -  1.00e+00 1.95e-03h 10
iter    objective    inf_pr   inf_du lg(mu)  ||d||  lg(rg) alpha_du alpha_pr  ls
  40  9.8598491e+00 6.18e-03 1.03e-03  -8.6 5.67e+09    -  1.00e+00 1.95e-03h 10
  41  9.8598491e+00 6.18e-03 1.03e-03  -8.6 5.67e+09    -  1.00e+00 1.95e-03h 10
  42  9.8598491e+00 6.18e-03 1.03e-03  -8.6 5.67e+09    -  1.00e+00 1.95e-03h 10
  43  9.8598491e+00 6.18e-03 1.03e-03  -8.6 5.67e+09    -  1.00e+00 1.95e-03h 10
  44  9.8598491e+00 6.17e-03 1.03e-03  -8.6 5.68e+09    -  1.00e+00 1.95e-03h 10
  45  9.8598491e+00 6.17e-03 1.04e-03  -8.6 5.68e+09    -  1.00e+00 1.00e+00H  1
  46  9.8598491e+00 6.17e-03 1.04e-03  -8.6 1.14e+10    -  1.00e+00 1.95e-03h 10
  47  9.8598491e+00 6.17e-03 1.03e-03  -8.6 1.14e+10    -  1.00e+00 1.95e-03h 10
  48  9.8598491e+00 6.17e-03 1.03e-03  -8.6 1.14e+10    -  1.00e+00 1.95e-03h 10
  49  9.8598491e+00 6.16e-03 1.03e-03  -8.6 1.14e+10    -  1.00e+00 1.95e-03h 10
iter    objective    inf_pr   inf_du lg(mu)  ||d||  lg(rg) alpha_du alpha_pr  ls
  50  9.8598491e+00 6.16e-03 1.03e-03  -8.6 1.14e+10    -  1.00e+00 1.95e-03h 10
  51  9.8598491e+00 6.16e-03 1.03e-03  -8.6 1.14e+10    -  1.00e+00 1.95e-03h 10
  52  9.8598491e+00 6.16e-03 1.02e-03  -8.6 1.14e+10    -  1.00e+00 1.95e-03h 10
  53  9.8598491e+00 6.12e-03 1.04e-03  -8.6 1.14e+10    -  1.00e+00 1.00e+00H  1
  54  9.8598491e+00 6.12e-03 1.04e-03  -8.6 2.29e+10    -  1.00e+00 1.95e-03h 10
  55  9.8598491e+00 6.11e-03 1.03e-03  -8.6 2.30e+10    -  1.00e+00 1.95e-03h 10
  56  9.8598491e+00 6.11e-03 1.03e-03  -8.6 2.30e+10    -  1.00e+00 1.95e-03h 10
  57  9.8598491e+00 6.11e-03 1.03e-03  -8.6 2.30e+10    -  1.00e+00 1.95e-03h 10
  58  9.8598491e+00 6.11e-03 1.03e-03  -8.6 2.30e+10    -  1.00e+00 1.95e-03h 10
  59  9.8598491e+00 6.11e-03 1.03e-03  -8.6 2.30e+10    -  1.00e+00 1.95e-03h 10
iter    objective    inf_pr   inf_du lg(mu)  ||d||  lg(rg) alpha_du alpha_pr  ls
  60  9.8598491e+00 6.11e-03 1.02e-03  -8.6 2.30e+10    -  1.00e+00 1.95e-03h 10
  61  9.8598491e+00 6.11e-03 1.02e-03  -8.6 2.30e+10    -  1.00e+00 1.95e-03h 10
  62  9.8598491e+00 6.07e-03 1.04e-03  -8.6 2.30e+10    -  1.00e+00 1.00e+00H  1
  63  9.8598491e+00 6.07e-03 1.04e-03  -8.6 4.62e+10    -  1.00e+00 1.95e-03h 10
  64  9.8598491e+00 6.07e-03 1.03e-03  -8.6 4.63e+10    -  1.00e+00 1.95e-03h 10
  65  9.8598491e+00 6.07e-03 1.03e-03  -8.6 4.63e+10    -  1.00e+00 1.95e-03h 10
  66  9.8598491e+00 6.07e-03 1.03e-03  -8.6 4.63e+10    -  1.00e+00 1.95e-03h 10
  67  9.8598491e+00 6.07e-03 1.03e-03  -8.6 4.63e+10    -  1.00e+00 1.95e-03h 10
  68  9.8598491e+00 6.06e-03 1.03e-03  -8.6 4.64e+10    -  1.00e+00 1.95e-03h 10
  69  9.8598491e+00 6.06e-03 1.02e-03  -8.6 4.64e+10    -  1.00e+00 1.95e-03h 10
iter    objective    inf_pr   inf_du lg(mu)  ||d||  lg(rg) alpha_du alpha_pr  ls
  70  9.8598491e+00 6.06e-03 1.02e-03  -8.6 4.64e+10    -  1.00e+00 1.95e-03h 10
  71  9.8598491e+00 6.06e-03 1.02e-03  -8.6 4.64e+10    -  1.00e+00 1.95e-03h 10
  72  9.8598491e+00 6.03e-03 1.04e-03  -8.6 4.65e+10    -  1.00e+00 1.00e+00H  1
  73  9.8598491e+00 6.02e-03 1.04e-03  -8.6 9.33e+10    -  1.00e+00 1.95e-03h 10
  74  9.8598491e+00 6.02e-03 1.03e-03  -8.6 9.34e+10    -  1.00e+00 1.95e-03h 10
  75  9.8598491e+00 6.02e-03 1.03e-03  -8.6 9.34e+10    -  1.00e+00 1.95e-03h 10
  76  9.8598491e+00 6.02e-03 1.03e-03  -8.6 9.35e+10    -  1.00e+00 1.95e-03h 10
  77  9.8598491e+00 6.02e-03 1.03e-03  -8.6 9.35e+10    -  1.00e+00 1.95e-03h 10
  78  9.8598491e+00 6.02e-03 1.03e-03  -8.6 9.35e+10    -  1.00e+00 1.95e-03h 10
  79  9.8598491e+00 6.02e-03 1.02e-03  -8.6 9.36e+10    -  1.00e+00 1.95e-03h 10
iter    objective    inf_pr   inf_du lg(mu)  ||d||  lg(rg) alpha_du alpha_pr  ls
  80  9.8598491e+00 6.02e-03 1.02e-03  -8.6 9.36e+10    -  1.00e+00 1.95e-03h 10
  81  9.8598491e+00 6.02e-03 1.02e-03  -8.6 9.37e+10    -  1.00e+00 1.95e-03h 10
  82  9.8598491e+00 6.01e-03 1.02e-03  -8.6 9.37e+10    -  1.00e+00 1.95e-03h 10
  83  9.8598491e+00 2.76e+00 3.99e-04  -8.6 9.38e+10    -  1.00e+00 1.00e+00w  1
  84  9.8598491e+00 1.17e-01 3.37e-03  -8.6 2.62e+11    -  1.00e+00 1.00e+00w  1
  85  9.8598491e+00 2.09e-15 4.44e-16  -8.6 8.16e-13  -5.9 1.00e+00 1.00e+00h  1

Number of Iterations....: 85

                                   (scaled)                 (unscaled)
Objective...............:   9.8598490757425719e+00    9.8598490757425719e+00
Dual infeasibility......:   4.4408920985006262e-16    4.4408920985006262e-16
Constraint violation....:   2.0915602596961564e-15    2.0915602596961564e-15
Variable bound violation:   0.0000000000000000e+00    0.0000000000000000e+00
Complementarity.........:   2.5059035596800626e-09    2.5059035596800626e-09
Overall NLP error.......:   2.5059035596800626e-09    2.5059035596800626e-09


Number of objective function evaluations             = 663
Number of objective gradient evaluations             = 86
Number of equality constraint evaluations            = 663
Number of inequality constraint evaluations          = 0
Number of equality constraint Jacobian evaluations   = 86
Number of inequality constraint Jacobian evaluations = 0
Number of Lagrangian Hessian evaluations             = 85
Total seconds in IPOPT                               = 0.510

EXIT: Optimal Solution Found.
